n=17;
m=15;
Ba=4.544933;
Bp=1.413333;
Ha=[[3.000000,3.000000,3.000000,3.000000,3.000000,3.000000,3.000000,3.000000,3.000000,0.000000,0.000000,0.000000,0.000000,0.000000,0.000000,0.000000,0.000000],[3.000000,3.000000,3.000000,3.000000,3.000000,3.000000,3.000000,3.000000,3.000000,0.000000,0.000000,0.000000,0.000000,0.000000,0.000000,0.000000,0.000000],[3.000000,3.000000,3.000000,3.000000,3.000000,3.000000,3.000000,3.000000,3.000000,1.300000,1.300000,1.300000,0.000000,0.000000,0.000000,0.000000,0.000000],[3.000000,3.000000,3.000000,3.000000,3.000000,3.000000,3.000000,3.000000,3.000000,1.300000,1.300000,1.300000,0.000000,0.000000,0.000000,0.000000,0.000000],[13.600000,13.600000,13.600000,13.600000,3.000000,3.000000,3.000000,3.000000,3.000000,1.300000,1.300000,1.300000,0.000000,0.000000,0.000000,0.000000,0.000000],[13.600000,13.600000,13.600000,13.600000,3.000000,3.000000,3.000000,3.000000,3.000000,1.300000,1.300000,1.300000,3.000000,3.000000,3.000000,0.000000,0.000000],[13.600000,13.600000,13.600000,13.600000,3.000000,3.000000,3.000000,3.000000,3.000000,1.300000,1.300000,1.300000,3.000000,3.000000,3.000000,0.000000,0.000000],[13.600000,5.850000,5.850000,5.850000,5.850000,5.850000,3.000000,3.000000,3.000000,1.300000,1.300000,1.300000,3.000000,3.000000,3.000000,0.000000,0.000000],[13.600000,5.850000,5.850000,5.850000,5.850000,5.850000,3.000000,3.000000,3.000000,1.300000,1.300000,1.300000,3.000000,3.000000,3.000000,0.000000,0.000000],[13.600000,5.850000,5.850000,5.850000,5.850000,5.850000,3.000000,3.000000,3.000000,1.300000,1.300000,1.300000,3.000000,18.500000,18.500000,0.000000,0.000000],[13.600000,5.850000,5.850000,5.850000,5.850000,5.850000,3.000000,3.000000,3.000000,1.300000,1.300000,1.300000,3.000000,18.500000,18.500000,0.000000,0.000000],[3.000000,5.850000,5.850000,5.850000,5.850000,5.850000,3.000000,3.000000,3.000000,1.300000,1.300000,1.300000,3.000000,18.500000,18.500000,0.000000,0.000000],[3.000000,5.850000,5.850000,5.850000,5.850000,5.850000,3.000000,3.000000,3.000000,1.300000,1.300000,1.300000,3.000000,18.500000,18.500000,0.000000,0.000000],[3.000000,5.850000,5.850000,5.850000,5.850000,5.850000,3.000000,3.000000,3.000000,1.300000,1.300000,1.300000,3.000000,18.500000,18.500000,0.000000,0.000000],[3.000000,3.000000,3.000000,3.000000,3.000000,3.000000,3.000000,3.000000,3.000000,1.300000,1.300000,1.300000,3.000000,3.000000,3.000000,0.000000,0.000000]];
Ca=[[0.365000,0.365000,0.365000,0.365000,0.365000,0.365000,0.365000,0.365000,0.365000,510.000000,510.000000,510.000000,510.000000,510.000000,510.000000,0.000000,0.000000],[0.365000,0.365000,0.365000,0.365000,0.365000,0.365000,0.365000,0.365000,0.365000,510.000000,510.000000,510.000000,510.000000,510.000000,510.000000,0.000000,0.000000],[0.365000,0.365000,0.365000,0.365000,0.365000,0.365000,0.365000,0.365000,0.365000,0.500000,0.500000,0.500000,510.000000,510.000000,510.000000,0.000000,0.000000],[0.365000,0.365000,0.365000,0.365000,0.365000,0.365000,0.365000,0.365000,0.365000,0.500000,0.500000,0.500000,510.000000,510.000000,510.000000,0.000000,0.000000],[0.125000,0.125000,0.125000,0.125000,0.365000,0.365000,0.365000,0.365000,0.365000,0.500000,0.500000,0.500000,510.000000,510.000000,510.000000,0.000000,0.000000],[0.125000,0.125000,0.125000,0.125000,0.365000,0.365000,0.365000,0.365000,0.365000,0.500000,0.500000,0.500000,0.365000,0.365000,0.365000,0.000000,0.000000],[0.125000,0.125000,0.125000,0.125000,0.365000,0.365000,0.365000,0.365000,0.365000,0.500000,0.500000,0.500000,0.365000,0.365000,0.365000,0.000000,0.000000],[0.125000,0.235000,0.235000,0.235000,0.235000,0.235000,0.365000,0.365000,0.365000,0.500000,0.500000,0.500000,0.365000,0.365000,0.365000,0.000000,0.000000],[0.125000,0.235000,0.235000,0.235000,0.235000,0.235000,0.365000,0.365000,0.365000,0.500000,0.500000,0.500000,0.365000,0.365000,0.365000,0.000000,0.000000],[0.125000,0.235000,0.235000,0.235000,0.235000,0.235000,0.365000,0.365000,0.365000,0.500000,0.500000,0.500000,0.365000,0.100000,0.100000,0.000000,0.000000],[0.125000,0.235000,0.235000,0.235000,0.235000,0.235000,0.365000,0.365000,0.365000,0.500000,0.500000,0.500000,0.365000,0.100000,0.100000,0.000000,0.000000],[0.365000,0.235000,0.235000,0.235000,0.235000,0.235000,0.365000,0.365000,0.365000,0.500000,0.500000,0.500000,0.365000,0.100000,0.100000,0.000000,0.000000],[0.365000,0.235000,0.235000,0.235000,0.235000,0.235000,0.365000,0.365000,0.365000,0.500000,0.500000,0.500000,0.365000,0.100000,0.100000,0.000000,0.000000],[0.365000,0.235000,0.235000,0.235000,0.235000,0.235000,0.365000,0.365000,0.365000,0.500000,0.500000,0.500000,0.365000,0.100000,0.100000,0.000000,0.000000],[0.365000,0.365000,0.365000,0.365000,0.365000,0.365000,0.365000,0.365000,0.365000,0.500000,0.500000,0.500000,0.365000,0.365000,0.365000,0.000000,0.000000]];
Hp=[[3.000000,3.000000,3.000000,3.000000,3.000000,3.000000,3.000000,3.000000,3.000000,0.000000,0.000000,0.000000,0.000000,0.000000,0.000000,0.000000,0.000000],[3.000000,3.000000,3.000000,3.000000,3.000000,3.000000,3.000000,3.000000,3.000000,0.000000,0.000000,0.000000,0.000000,0.000000,0.000000,0.000000,0.000000],[3.000000,3.000000,3.000000,3.000000,3.000000,3.000000,3.000000,3.000000,3.000000,1.300000,1.300000,1.300000,0.000000,0.000000,0.000000,0.000000,0.000000],[3.000000,3.000000,3.000000,3.000000,3.000000,3.000000,3.000000,3.000000,3.000000,1.300000,1.300000,1.300000,0.000000,0.000000,0.000000,0.000000,0.000000],[13.600000,13.600000,13.600000,13.600000,3.000000,3.000000,3.000000,3.000000,3.000000,1.300000,1.300000,1.300000,0.000000,0.000000,0.000000,0.000000,0.000000],[13.600000,13.600000,13.600000,13.600000,3.000000,3.000000,3.000000,3.000000,3.000000,1.300000,1.300000,1.300000,3.000000,3.000000,3.000000,0.000000,0.000000],[13.600000,13.600000,13.600000,13.600000,3.000000,3.000000,3.000000,3.000000,3.000000,1.300000,1.300000,1.300000,3.000000,3.000000,3.000000,0.000000,0.000000],[13.600000,5.850000,5.850000,5.850000,5.850000,5.850000,3.000000,3.000000,3.000000,1.300000,1.300000,1.300000,3.000000,3.000000,3.000000,0.000000,0.000000],[13.600000,5.850000,5.850000,5.850000,5.850000,5.850000,3.000000,3.000000,3.000000,1.300000,1.300000,1.300000,3.000000,3.000000,3.000000,0.000000,0.000000],[13.600000,5.850000,5.850000,5.850000,5.850000,5.850000,3.000000,3.000000,3.000000,1.300000,1.300000,1.300000,3.000000,18.500000,18.500000,0.000000,0.000000],[13.600000,5.850000,5.850000,5.850000,5.850000,5.850000,3.000000,3.000000,3.000000,1.300000,1.300000,1.300000,3.000000,18.500000,18.500000,0.000000,0.000000],[3.000000,5.850000,5.850000,5.850000,5.850000,5.850000,3.000000,3.000000,3.000000,1.300000,1.300000,1.300000,3.000000,18.500000,18.500000,0.000000,0.000000],[3.000000,5.850000,5.850000,5.850000,5.850000,5.850000,3.000000,3.000000,3.000000,1.300000,1.300000,1.300000,3.000000,18.500000,18.500000,0.000000,0.000000],[3.000000,5.850000,5.850000,5.850000,5.850000,5.850000,3.000000,3.000000,3.000000,1.300000,1.300000,1.300000,3.000000,18.500000,18.500000,0.000000,0.000000],[3.000000,3.000000,3.000000,3.000000,3.000000,3.000000,3.000000,3.000000,3.000000,1.300000,1.300000,1.300000,3.000000,3.000000,3.000000,0.000000,0.000000]];
Cp=[[0.365000,0.365000,0.365000,0.365000,0.365000,0.365000,0.365000,0.365000,0.365000,510.000000,510.000000,510.000000,510.000000,510.000000,510.000000,0.000000,0.000000],[0.365000,0.365000,0.365000,0.365000,0.365000,0.365000,0.365000,0.365000,0.365000,510.000000,510.000000,510.000000,510.000000,510.000000,510.000000,0.000000,0.000000],[0.365000,0.365000,0.365000,0.365000,0.365000,0.365000,0.365000,0.365000,0.365000,0.500000,0.500000,0.500000,510.000000,510.000000,510.000000,0.000000,0.000000],[0.365000,0.365000,0.365000,0.365000,0.365000,0.365000,0.365000,0.365000,0.365000,0.500000,0.500000,0.500000,510.000000,510.000000,510.000000,0.000000,0.000000],[0.125000,0.125000,0.125000,0.125000,0.365000,0.365000,0.365000,0.365000,0.365000,0.500000,0.500000,0.500000,510.000000,510.000000,510.000000,0.000000,0.000000],[0.125000,0.125000,0.125000,0.125000,0.365000,0.365000,0.365000,0.365000,0.365000,0.500000,0.500000,0.500000,0.365000,0.365000,0.365000,0.000000,0.000000],[0.125000,0.125000,0.125000,0.125000,0.365000,0.365000,0.365000,0.365000,0.365000,0.500000,0.500000,0.500000,0.365000,0.365000,0.365000,0.000000,0.000000],[0.125000,0.235000,0.235000,0.235000,0.235000,0.235000,0.365000,0.365000,0.365000,0.500000,0.500000,0.500000,0.365000,0.365000,0.365000,0.000000,0.000000],[0.125000,0.235000,0.235000,0.235000,0.235000,0.235000,0.365000,0.365000,0.365000,0.500000,0.500000,0.500000,0.365000,0.365000,0.365000,0.000000,0.000000],[0.125000,0.235000,0.235000,0.235000,0.235000,0.235000,0.365000,0.365000,0.365000,0.500000,0.500000,0.500000,0.365000,0.100000,0.100000,0.000000,0.000000],[0.125000,0.235000,0.235000,0.235000,0.235000,0.235000,0.365000,0.365000,0.365000,0.500000,0.500000,0.500000,0.365000,0.100000,0.100000,0.000000,0.000000],[0.365000,0.235000,0.235000,0.235000,0.235000,0.235000,0.365000,0.365000,0.365000,0.500000,0.500000,0.500000,0.365000,0.100000,0.100000,0.000000,0.000000],[0.365000,0.235000,0.235000,0.235000,0.235000,0.235000,0.365000,0.365000,0.365000,0.500000,0.500000,0.500000,0.365000,0.100000,0.100000,0.000000,0.000000],[0.365000,0.235000,0.235000,0.235000,0.235000,0.235000,0.365000,0.365000,0.365000,0.500000,0.500000,0.500000,0.365000,0.100000,0.100000,0.000000,0.000000],[0.365000,0.365000,0.365000,0.365000,0.365000,0.365000,0.365000,0.365000,0.365000,0.500000,0.500000,0.500000,0.365000,0.365000,0.365000,0.000000,0.000000]];
